certificates/rado_a11_c116_N36.cnf
c Rad2 upper bound instance: x1 + 11*x2 - x3 = 116, interval [1,36]
p cnf 36 232
1 6 11 0
-1 -6 -11 0
1 12 17 0
-1 -12 -17 0
1 13 28 0
-1 -13 -28 0
2 7 11 0
-2 -7 -11 0
2 12 18 0
-2 -12 -18 0
2 13 29 0
-2 -13 -29 0
3 8 11 0
-3 -8 -11 0
3 12 19 0
-3 -12 -19 0
3 13 30 0
-3 -13 -30 0
4 9 11 0
-4 -9 -11 0
4 12 20 0
-4 -12 -20 0
4 13 31 0
-4 -13 -31 0
5 10 11 0
-5 -10 -11 0
5 12 21 0
-5 -12 -21 0
5 13 32 0
-5 -13 -32 0
6 11 0
-6 -11 0
6 12 22 0
-6 -12 -22 0
6 13 33 0
-6 -13 -33 0
1 7 10 0
-1 -7 -10 0
7 11 12 0
-7 -11 -12 0
7 12 23 0
-7 -12 -23 0
7 13 34 0
-7 -13 -34 0
2 8 10 0
-2 -8 -10 0
8 11 13 0
-8 -11 -13 0
8 12 24 0
-8 -12 -24 0
8 13 35 0
-8 -13 -35 0
3 9 10 0
-3 -9 -10 0
9 11 14 0
-9 -11 -14 0
9 12 25 0
-9 -12 -25 0
9 13 36 0
-9 -13 -36 0
4 10 0
-4 -10 0
10 11 15 0
-10 -11 -15 0
10 12 26 0
-10 -12 -26 0
11 16 0
-11 -16 0
11 12 27 0
-11 -12 -27 0
6 10 12 0
-6 -10 -12 0
11 12 17 0
-11 -12 -17 0
12 28 0
-12 -28 0
7 10 13 0
-7 -10 -13 0
11 13 18 0
-11 -13 -18 0
12 13 29 0
-12 -13 -29 0
8 10 14 0
-8 -10 -14 0
11 14 19 0
-11 -14 -19 0
12 14 30 0
-12 -14 -30 0
9 10 15 0
-9 -10 -15 0
11 15 20 0
-11 -15 -20 0
12 15 31 0
-12 -15 -31 0
10 16 0
-10 -16 0
11 16 21 0
-11 -16 -21 0
12 16 32 0
-12 -16 -32 0
10 11 17 0
-10 -11 -17 0
11 17 22 0
-11 -17 -22 0
12 17 33 0
-12 -17 -33 0
1 9 18 0
-1 -9 -18 0
10 12 18 0
-10 -12 -18 0
11 18 23 0
-11 -18 -23 0
12 18 34 0
-12 -18 -34 0
2 9 19 0
-2 -9 -19 0
10 13 19 0
-10 -13 -19 0
11 19 24 0
-11 -19 -24 0
12 19 35 0
-12 -19 -35 0
3 9 20 0
-3 -9 -20 0
10 14 20 0
-10 -14 -20 0
11 20 25 0
-11 -20 -25 0
12 20 36 0
-12 -20 -36 0
4 9 21 0
-4 -9 -21 0
10 15 21 0
-10 -15 -21 0
11 21 26 0
-11 -21 -26 0
5 9 22 0
-5 -9 -22 0
10 16 22 0
-10 -16 -22 0
11 22 27 0
-11 -22 -27 0
6 9 23 0
-6 -9 -23 0
10 17 23 0
-10 -17 -23 0
11 23 28 0
-11 -23 -28 0
7 9 24 0
-7 -9 -24 0
10 18 24 0
-10 -18 -24 0
11 24 29 0
-11 -24 -29 0
8 9 25 0
-8 -9 -25 0
10 19 25 0
-10 -19 -25 0
11 25 30 0
-11 -25 -30 0
9 26 0
-9 -26 0
10 20 26 0
-10 -20 -26 0
11 26 31 0
-11 -26 -31 0
9 10 27 0
-9 -10 -27 0
10 21 27 0
-10 -21 -27 0
11 27 32 0
-11 -27 -32 0
9 11 28 0
-9 -11 -28 0
10 22 28 0
-10 -22 -28 0
11 28 33 0
-11 -28 -33 0
1 8 29 0
-1 -8 -29 0
9 12 29 0
-9 -12 -29 0
10 23 29 0
-10 -23 -29 0
11 29 34 0
-11 -29 -34 0
2 8 30 0
-2 -8 -30 0
9 13 30 0
-9 -13 -30 0
10 24 30 0
-10 -24 -30 0
11 30 35 0
-11 -30 -35 0
3 8 31 0
-3 -8 -31 0
9 14 31 0
-9 -14 -31 0
10 25 31 0
-10 -25 -31 0
11 31 36 0
-11 -31 -36 0
4 8 32 0
-4 -8 -32 0
9 15 32 0
-9 -15 -32 0
10 26 32 0
-10 -26 -32 0
5 8 33 0
-5 -8 -33 0
9 16 33 0
-9 -16 -33 0
10 27 33 0
-10 -27 -33 0
6 8 34 0
-6 -8 -34 0
9 17 34 0
-9 -17 -34 0
10 28 34 0
-10 -28 -34 0
7 8 35 0
-7 -8 -35 0
9 18 35 0
-9 -18 -35 0
10 29 35 0
-10 -29 -35 0
8 36 0
-8 -36 0
9 19 36 0
-9 -19 -36 0
10 30 36 0
-10 -30 -36 0
