certificates/rado_a11_c116_N36.drat
11 -33 8 0
-33 -36 0
-11 -5 0
-36 0
8 0
11 33 0
33 0
-5 0
-11 0
6 0
16 0
31 0
10 0
-13 0
-34 0
0
